
Gurobi 7.5.1 (linux64, Python) logging started Tue 10 Oct 2017 00:23:26 CEST

Academic license - for non-commercial use only
Optimize a model with 451 rows, 187 columns and 990 nonzeros
Coefficient statistics:
  Matrix range     [2e-06, 1e+00]
  Objective range  [9e-03, 3e+03]
  Bounds range     [1e+02, 1e+02]
  RHS range        [9e-01, 1e+03]
Presolve removed 140 rows and 80 columns
Presolve time: 0.01s
Presolved: 311 rows, 107 columns, 970 nonzeros

Iteration    Objective       Primal Inf.    Dual Inf.      Time
       0      handle free variables                          0s
     170   -3.4742560e+06   0.000000e+00   0.000000e+00      0s

Solved in 170 iterations and 0.02 seconds
Optimal objective -3.474256041e+06

Gurobi 7.5.1 (linux64, Python) logging started Tue 10 Oct 2017 00:24:33 CEST

Academic license - for non-commercial use only
Optimize a model with 451 rows, 187 columns and 990 nonzeros
Coefficient statistics:
  Matrix range     [2e-06, 1e+00]
  Objective range  [9e-03, 3e+03]
  Bounds range     [1e+02, 1e+02]
  RHS range        [9e-01, 1e+03]
Presolve removed 140 rows and 80 columns
Presolve time: 0.00s
Presolved: 311 rows, 107 columns, 970 nonzeros

Iteration    Objective       Primal Inf.    Dual Inf.      Time
       0      handle free variables                          0s
     170   -3.4742560e+06   0.000000e+00   0.000000e+00      0s

Solved in 170 iterations and 0.01 seconds
Optimal objective -3.474256041e+06
